p edge 3518 3418
e 1 2
e 1 3
e 1 4
e 1 5
e 1 6
e 1 7
e 1 8
e 1 9
e 1 10
e 1 11
e 1 12
e 1 13
e 1 14
e 1 15
e 1 16
e 1 17
e 1 18
e 1 19
e 1 20
e 1 21
e 1 22
e 1 23
e 1 24
e 1 25
e 1 26
e 1 27
e 1 28
e 1 29
e 1 30
e 1 31
e 1 32
e 1 33
e 1 34
e 1 35
e 1 36
e 1 37
e 38 39
e 38 40
e 38 41
e 38 42
e 38 43
e 38 44
e 38 45
e 38 46
e 38 47
e 38 48
e 38 49
e 38 50
e 38 51
e 38 52
e 38 53
e 38 54
e 38 55
e 38 56
e 38 57
e 38 58
e 38 59
e 38 60
e 38 61
e 38 62
e 38 63
e 38 64
e 38 65
e 38 66
e 38 67
e 38 68
e 38 69
e 38 70
e 38 71
e 38 72
e 38 73
e 38 74
e 38 75
e 38 76
e 38 77
e 38 78
e 38 79
e 38 80
e 38 81
e 38 82
e 38 83
e 38 84
e 38 85
e 38 86
e 38 87
e 38 88
e 38 89
e 38 90
e 38 91
e 38 92
e 38 93
e 38 94
e 38 95
e 38 96
e 38 97
e 98 99
e 98 100
e 98 101
e 98 102
e 98 103
e 98 104
e 98 105
e 98 106
e 98 107
e 98 108
e 98 109
e 98 110
e 98 111
e 98 112
e 98 113
e 98 114
e 98 115
e 98 116
e 98 117
e 98 118
e 98 119
e 98 120
e 121 122
e 121 123
e 121 124
e 121 125
e 121 126
e 121 127
e 121 128
e 121 129
e 121 130
e 121 131
e 121 132
e 121 133
e 121 134
e 121 135
e 121 136
e 121 137
e 121 138
e 121 139
e 121 140
e 121 141
e 121 142
e 121 143
e 121 144
e 121 145
e 121 146
e 121 147
e 121 148
e 121 149
e 121 150
e 121 151
e 121 152
e 121 153
e 121 154
e 121 155
e 121 156
e 121 157
e 121 158
e 121 159
e 121 160
e 121 161
e 121 162
e 121 163
e 121 164
e 121 165
e 121 166
e 121 167
e 121 168
e 121 169
e 121 170
e 121 171
e 121 172
e 121 173
e 174 175
e 174 176
e 174 177
e 174 178
e 174 179
e 174 180
e 174 181
e 174 182
e 174 183
e 174 184
e 185 186
e 185 187
e 185 188
e 185 189
e 185 190
e 185 191
e 185 192
e 185 193
e 185 194
e 185 195
e 185 196
e 185 197
e 185 198
e 185 199
e 185 200
e 185 201
e 185 202
e 185 203
e 204 205
e 204 206
e 204 207
e 204 208
e 204 209
e 204 210
e 204 211
e 204 212
e 204 213
e 204 214
e 215 216
e 215 217
e 215 218
e 215 219
e 215 220
e 215 221
e 215 222
e 215 223
e 215 224
e 215 225
e 215 226
e 215 227
e 215 228
e 215 229
e 215 230
e 215 231
e 215 232
e 215 233
e 215 234
e 215 235
e 215 236
e 215 237
e 215 238
e 215 239
e 215 240
e 215 241
e 215 242
e 215 243
e 215 244
e 215 245
e 215 246
e 215 247
e 215 248
e 215 249
e 215 250
e 215 251
e 215 252
e 215 253
e 215 254
e 255 256
e 255 257
e 255 258
e 255 259
e 255 260
e 255 261
e 255 262
e 255 263
e 255 264
e 255 265
e 255 266
e 255 267
e 255 268
e 255 269
e 255 270
e 255 271
e 255 272
e 255 273
e 255 274
e 255 275
e 255 276
e 255 277
e 255 278
e 255 279
e 255 280
e 255 281
e 255 282
e 283 284
e 283 285
e 283 286
e 283 287
e 283 288
e 283 289
e 283 290
e 283 291
e 283 292
e 283 293
e 283 294
e 283 295
e 283 296
e 283 297
e 283 298
e 283 299
e 283 300
e 283 301
e 283 302
e 283 303
e 283 304
e 283 305
e 283 306
e 283 307
e 283 308
e 283 309
e 283 310
e 283 311
e 283 312
e 283 313
e 283 314
e 283 315
e 283 316
e 283 317
e 283 318
e 283 319
e 283 320
e 283 321
e 283 322
e 283 323
e 283 324
e 283 325
e 283 326
e 283 327
e 283 328
e 283 329
e 283 330
e 283 331
e 283 332
e 283 333
e 283 334
e 283 335
e 336 337
e 336 338
e 336 339
e 336 340
e 336 341
e 336 342
e 336 343
e 336 344
e 336 345
e 336 346
e 336 347
e 336 348
e 336 349
e 336 350
e 336 351
e 336 352
e 336 353
e 336 354
e 336 355
e 336 356
e 336 357
e 336 358
e 336 359
e 336 360
e 336 361
e 336 362
e 336 363
e 336 364
e 336 365
e 336 366
e 336 367
e 336 368
e 336 369
e 370 371
e 370 372
e 370 373
e 370 374
e 370 375
e 370 376
e 370 377
e 370 378
e 370 379
e 370 380
e 370 381
e 370 382
e 370 383
e 370 384
e 370 385
e 370 386
e 370 387
e 370 388
e 370 389
e 370 390
e 370 391
e 370 392
e 370 393
e 394 395
e 394 396
e 394 397
e 394 398
e 394 399
e 394 400
e 394 401
e 394 402
e 394 403
e 394 404
e 394 405
e 394 406
e 394 407
e 394 408
e 394 409
e 394 410
e 394 411
e 394 412
e 394 413
e 394 414
e 394 415
e 394 416
e 394 417
e 394 418
e 394 419
e 394 420
e 394 421
e 394 422
e 394 423
e 394 424
e 394 425
e 394 426
e 394 427
e 394 428
e 394 429
e 394 430
e 394 431
e 394 432
e 394 433
e 394 434
e 394 435
e 394 436
e 394 437
e 394 438
e 394 439
e 394 440
e 394 441
e 394 442
e 394 443
e 394 444
e 394 445
e 394 446
e 394 447
e 394 448
e 394 449
e 450 451
e 450 452
e 450 453
e 450 454
e 450 455
e 450 456
e 450 457
e 450 458
e 450 459
e 450 460
e 450 461
e 450 462
e 450 463
e 450 464
e 450 465
e 450 466
e 450 467
e 450 468
e 450 469
e 450 470
e 471 472
e 471 473
e 471 474
e 471 475
e 471 476
e 471 477
e 471 478
e 471 479
e 471 480
e 471 481
e 471 482
e 471 483
e 471 484
e 471 485
e 471 486
e 471 487
e 471 488
e 471 489
e 471 490
e 471 491
e 471 492
e 471 493
e 471 494
e 471 495
e 471 496
e 471 497
e 471 498
e 471 499
e 471 500
e 471 501
e 471 502
e 471 503
e 471 504
e 471 505
e 471 506
e 471 507
e 471 508
e 509 510
e 509 511
e 509 512
e 509 513
e 509 514
e 509 515
e 509 516
e 509 517
e 509 518
e 509 519
e 509 520
e 509 521
e 509 522
e 509 523
e 509 524
e 509 525
e 509 526
e 509 527
e 509 528
e 509 529
e 509 530
e 509 531
e 509 532
e 509 533
e 509 534
e 509 535
e 509 536
e 509 537
e 509 538
e 509 539
e 509 540
e 509 541
e 509 542
e 509 543
e 509 544
e 509 545
e 509 546
e 509 547
e 509 548
e 509 549
e 509 550
e 509 551
e 509 552
e 509 553
e 509 554
e 509 555
e 509 556
e 509 557
e 509 558
e 509 559
e 509 560
e 509 561
e 509 562
e 509 563
e 509 564
e 509 565
e 509 566
e 509 567
e 509 568
e 509 569
e 570 571
e 570 572
e 570 573
e 570 574
e 570 575
e 570 576
e 570 577
e 570 578
e 570 579
e 570 580
e 570 581
e 570 582
e 570 583
e 570 584
e 570 585
e 570 586
e 570 587
e 570 588
e 570 589
e 570 590
e 570 591
e 570 592
e 570 593
e 570 594
e 570 595
e 570 596
e 570 597
e 570 598
e 570 599
e 570 600
e 570 601
e 570 602
e 570 603
e 570 604
e 570 605
e 570 606
e 570 607
e 570 608
e 570 609
e 570 610
e 570 611
e 570 612
e 570 613
e 570 614
e 570 615
e 570 616
e 570 617
e 570 618
e 570 619
e 570 620
e 570 621
e 570 622
e 570 623
e 570 624
e 570 625
e 570 626
e 570 627
e 628 629
e 628 630
e 628 631
e 628 632
e 628 633
e 628 634
e 628 635
e 628 636
e 628 637
e 628 638
e 628 639
e 628 640
e 628 641
e 628 642
e 628 643
e 628 644
e 628 645
e 628 646
e 647 648
e 647 649
e 647 650
e 647 651
e 647 652
e 647 653
e 647 654
e 647 655
e 647 656
e 647 657
e 647 658
e 647 659
e 647 660
e 647 661
e 647 662
e 647 663
e 647 664
e 647 665
e 647 666
e 647 667
e 647 668
e 647 669
e 647 670
e 647 671
e 647 672
e 647 673
e 647 674
e 647 675
e 647 676
e 647 677
e 647 678
e 647 679
e 647 680
e 647 681
e 682 683
e 682 684
e 682 685
e 682 686
e 682 687
e 682 688
e 682 689
e 682 690
e 682 691
e 682 692
e 682 693
e 682 694
e 682 695
e 696 697
e 696 698
e 696 699
e 696 700
e 696 701
e 696 702
e 696 703
e 696 704
e 696 705
e 696 706
e 696 707
e 696 708
e 696 709
e 696 710
e 696 711
e 696 712
e 696 713
e 696 714
e 696 715
e 696 716
e 696 717
e 696 718
e 696 719
e 696 720
e 696 721
e 696 722
e 696 723
e 696 724
e 696 725
e 696 726
e 696 727
e 696 728
e 696 729
e 696 730
e 696 731
e 696 732
e 696 733
e 696 734
e 696 735
e 696 736
e 696 737
e 696 738
e 696 739
e 696 740
e 696 741
e 742 743
e 742 744
e 742 745
e 742 746
e 742 747
e 742 748
e 742 749
e 742 750
e 742 751
e 742 752
e 742 753
e 742 754
e 742 755
e 742 756
e 742 757
e 742 758
e 742 759
e 742 760
e 742 761
e 742 762
e 742 763
e 742 764
e 742 765
e 742 766
e 742 767
e 742 768
e 742 769
e 742 770
e 742 771
e 742 772
e 742 773
e 742 774
e 742 775
e 742 776
e 742 777
e 742 778
e 742 779
e 742 780
e 742 781
e 782 783
e 782 784
e 782 785
e 782 786
e 782 787
e 782 788
e 782 789
e 782 790
e 782 791
e 782 792
e 782 793
e 782 794
e 782 795
e 782 796
e 782 797
e 782 798
e 782 799
e 782 800
e 782 801
e 782 802
e 782 803
e 782 804
e 782 805
e 782 806
e 782 807
e 782 808
e 782 809
e 782 810
e 782 811
e 782 812
e 782 813
e 782 814
e 782 815
e 816 817
e 816 818
e 816 819
e 816 820
e 816 821
e 816 822
e 816 823
e 816 824
e 816 825
e 816 826
e 827 828
e 827 829
e 827 830
e 827 831
e 827 832
e 827 833
e 827 834
e 827 835
e 827 836
e 827 837
e 827 838
e 827 839
e 827 840
e 827 841
e 827 842
e 827 843
e 827 844
e 827 845
e 827 846
e 827 847
e 827 848
e 827 849
e 827 850
e 827 851
e 827 852
e 827 853
e 827 854
e 827 855
e 856 857
e 856 858
e 856 859
e 856 860
e 856 861
e 856 862
e 856 863
e 856 864
e 856 865
e 856 866
e 856 867
e 856 868
e 856 869
e 856 870
e 856 871
e 856 872
e 856 873
e 856 874
e 856 875
e 856 876
e 856 877
e 856 878
e 856 879
e 856 880
e 856 881
e 856 882
e 856 883
e 856 884
e 856 885
e 856 886
e 856 887
e 856 888
e 856 889
e 856 890
e 856 891
e 856 892
e 856 893
e 856 894
e 856 895
e 856 896
e 856 897
e 856 898
e 856 899
e 856 900
e 856 901
e 856 902
e 856 903
e 856 904
e 905 906
e 905 907
e 905 908
e 905 909
e 905 910
e 905 911
e 905 912
e 905 913
e 905 914
e 905 915
e 905 916
e 905 917
e 905 918
e 905 919
e 905 920
e 905 921
e 905 922
e 905 923
e 905 924
e 905 925
e 905 926
e 905 927
e 905 928
e 905 929
e 905 930
e 905 931
e 905 932
e 905 933
e 905 934
e 905 935
e 905 936
e 905 937
e 905 938
e 905 939
e 905 940
e 905 941
e 905 942
e 905 943
e 944 945
e 944 946
e 944 947
e 944 948
e 944 949
e 944 950
e 944 951
e 944 952
e 944 953
e 944 954
e 944 955
e 944 956
e 944 957
e 944 958
e 944 959
e 944 960
e 944 961
e 944 962
e 944 963
e 944 964
e 944 965
e 944 966
e 944 967
e 944 968
e 944 969
e 944 970
e 944 971
e 944 972
e 944 973
e 944 974
e 944 975
e 944 976
e 944 977
e 944 978
e 944 979
e 944 980
e 944 981
e 982 983
e 982 984
e 982 985
e 982 986
e 982 987
e 982 988
e 982 989
e 982 990
e 982 991
e 982 992
e 982 993
e 982 994
e 982 995
e 982 996
e 982 997
e 982 998
e 982 999
e 982 1000
e 982 1001
e 982 1002
e 982 1003
e 982 1004
e 982 1005
e 982 1006
e 982 1007
e 982 1008
e 982 1009
e 982 1010
e 982 1011
e 982 1012
e 982 1013
e 982 1014
e 982 1015
e 982 1016
e 982 1017
e 982 1018
e 982 1019
e 982 1020
e 982 1021
e 982 1022
e 982 1023
e 982 1024
e 982 1025
e 1026 1027
e 1026 1028
e 1026 1029
e 1026 1030
e 1026 1031
e 1026 1032
e 1026 1033
e 1026 1034
e 1026 1035
e 1026 1036
e 1026 1037
e 1026 1038
e 1026 1039
e 1026 1040
e 1026 1041
e 1026 1042
e 1026 1043
e 1026 1044
e 1026 1045
e 1026 1046
e 1026 1047
e 1026 1048
e 1026 1049
e 1026 1050
e 1026 1051
e 1026 1052
e 1026 1053
e 1026 1054
e 1026 1055
e 1026 1056
e 1026 1057
e 1026 1058
e 1026 1059
e 1026 1060
e 1026 1061
e 1026 1062
e 1026 1063
e 1026 1064
e 1026 1065
e 1026 1066
e 1026 1067
e 1026 1068
e 1026 1069
e 1026 1070
e 1026 1071
e 1026 1072
e 1026 1073
e 1026 1074
e 1026 1075
e 1026 1076
e 1026 1077
e 1026 1078
e 1026 1079
e 1026 1080
e 1026 1081
e 1026 1082
e 1026 1083
e 1026 1084
e 1026 1085
e 1026 1086
e 1087 1088
e 1087 1089
e 1087 1090
e 1087 1091
e 1087 1092
e 1087 1093
e 1087 1094
e 1087 1095
e 1087 1096
e 1087 1097
e 1087 1098
e 1087 1099
e 1087 1100
e 1087 1101
e 1087 1102
e 1087 1103
e 1087 1104
e 1087 1105
e 1087 1106
e 1087 1107
e 1087 1108
e 1087 1109
e 1087 1110
e 1087 1111
e 1087 1112
e 1087 1113
e 1087 1114
e 1087 1115
e 1087 1116
e 1087 1117
e 1087 1118
e 1087 1119
e 1087 1120
e 1087 1121
e 1087 1122
e 1087 1123
e 1087 1124
e 1087 1125
e 1087 1126
e 1087 1127
e 1087 1128
e 1087 1129
e 1087 1130
e 1087 1131
e 1087 1132
e 1087 1133
e 1087 1134
e 1087 1135
e 1087 1136
e 1087 1137
e 1087 1138
e 1087 1139
e 1087 1140
e 1087 1141
e 1087 1142
e 1087 1143
e 1087 1144
e 1145 1146
e 1145 1147
e 1145 1148
e 1145 1149
e 1145 1150
e 1145 1151
e 1145 1152
e 1145 1153
e 1145 1154
e 1145 1155
e 1145 1156
e 1145 1157
e 1145 1158
e 1145 1159
e 1145 1160
e 1145 1161
e 1145 1162
e 1145 1163
e 1145 1164
e 1145 1165
e 1145 1166
e 1145 1167
e 1145 1168
e 1145 1169
e 1145 1170
e 1145 1171
e 1145 1172
e 1145 1173
e 1145 1174
e 1145 1175
e 1145 1176
e 1145 1177
e 1145 1178
e 1145 1179
e 1145 1180
e 1145 1181
e 1145 1182
e 1145 1183
e 1145 1184
e 1145 1185
e 1145 1186
e 1145 1187
e 1145 1188
e 1145 1189
e 1145 1190
e 1191 1192
e 1191 1193
e 1191 1194
e 1191 1195
e 1191 1196
e 1191 1197
e 1191 1198
e 1191 1199
e 1191 1200
e 1191 1201
e 1191 1202
e 1191 1203
e 1191 1204
e 1191 1205
e 1191 1206
e 1191 1207
e 1191 1208
e 1191 1209
e 1191 1210
e 1191 1211
e 1191 1212
e 1191 1213
e 1191 1214
e 1191 1215
e 1216 1217
e 1216 1218
e 1216 1219
e 1216 1220
e 1216 1221
e 1216 1222
e 1216 1223
e 1216 1224
e 1216 1225
e 1216 1226
e 1216 1227
e 1216 1228
e 1216 1229
e 1216 1230
e 1216 1231
e 1216 1232
e 1216 1233
e 1216 1234
e 1216 1235
e 1216 1236
e 1216 1237
e 1216 1238
e 1216 1239
e 1216 1240
e 1216 1241
e 1216 1242
e 1216 1243
e 1216 1244
e 1216 1245
e 1216 1246
e 1216 1247
e 1216 1248
e 1216 1249
e 1216 1250
e 1216 1251
e 1216 1252
e 1216 1253
e 1254 1255
e 1254 1256
e 1254 1257
e 1254 1258
e 1254 1259
e 1254 1260
e 1254 1261
e 1254 1262
e 1254 1263
e 1254 1264
e 1254 1265
e 1254 1266
e 1254 1267
e 1254 1268
e 1254 1269
e 1254 1270
e 1254 1271
e 1254 1272
e 1254 1273
e 1254 1274
e 1254 1275
e 1254 1276
e 1254 1277
e 1254 1278
e 1254 1279
e 1254 1280
e 1254 1281
e 1254 1282
e 1254 1283
e 1254 1284
e 1254 1285
e 1254 1286
e 1254 1287
e 1254 1288
e 1289 1290
e 1289 1291
e 1289 1292
e 1289 1293
e 1289 1294
e 1289 1295
e 1289 1296
e 1289 1297
e 1289 1298
e 1289 1299
e 1289 1300
e 1289 1301
e 1289 1302
e 1289 1303
e 1289 1304
e 1289 1305
e 1289 1306
e 1289 1307
e 1289 1308
e 1289 1309
e 1289 1310
e 1289 1311
e 1289 1312
e 1289 1313
e 1289 1314
e 1289 1315
e 1289 1316
e 1289 1317
e 1289 1318
e 1289 1319
e 1289 1320
e 1289 1321
e 1289 1322
e 1289 1323
e 1289 1324
e 1289 1325
e 1289 1326
e 1289 1327
e 1289 1328
e 1289 1329
e 1289 1330
e 1289 1331
e 1289 1332
e 1333 1334
e 1333 1335
e 1333 1336
e 1333 1337
e 1333 1338
e 1333 1339
e 1333 1340
e 1333 1341
e 1333 1342
e 1333 1343
e 1333 1344
e 1333 1345
e 1333 1346
e 1333 1347
e 1333 1348
e 1333 1349
e 1333 1350
e 1333 1351
e 1333 1352
e 1333 1353
e 1333 1354
e 1333 1355
e 1333 1356
e 1357 1358
e 1357 1359
e 1357 1360
e 1357 1361
e 1357 1362
e 1357 1363
e 1357 1364
e 1357 1365
e 1357 1366
e 1357 1367
e 1357 1368
e 1357 1369
e 1370 1371
e 1370 1372
e 1370 1373
e 1370 1374
e 1370 1375
e 1370 1376
e 1370 1377
e 1370 1378
e 1370 1379
e 1370 1380
e 1370 1381
e 1370 1382
e 1370 1383
e 1370 1384
e 1370 1385
e 1370 1386
e 1370 1387
e 1370 1388
e 1370 1389
e 1370 1390
e 1370 1391
e 1370 1392
e 1370 1393
e 1370 1394
e 1370 1395
e 1370 1396
e 1370 1397
e 1370 1398
e 1370 1399
e 1370 1400
e 1370 1401
e 1370 1402
e 1370 1403
e 1370 1404
e 1370 1405
e 1370 1406
e 1370 1407
e 1370 1408
e 1370 1409
e 1370 1410
e 1370 1411
e 1370 1412
e 1370 1413
e 1370 1414
e 1370 1415
e 1370 1416
e 1370 1417
e 1370 1418
e 1419 1420
e 1419 1421
e 1419 1422
e 1419 1423
e 1419 1424
e 1419 1425
e 1419 1426
e 1419 1427
e 1419 1428
e 1419 1429
e 1419 1430
e 1419 1431
e 1419 1432
e 1419 1433
e 1419 1434
e 1419 1435
e 1419 1436
e 1437 1438
e 1437 1439
e 1437 1440
e 1437 1441
e 1437 1442
e 1437 1443
e 1437 1444
e 1437 1445
e 1437 1446
e 1437 1447
e 1437 1448
e 1437 1449
e 1450 1451
e 1450 1452
e 1450 1453
e 1450 1454
e 1450 1455
e 1450 1456
e 1450 1457
e 1450 1458
e 1450 1459
e 1450 1460
e 1450 1461
e 1450 1462
e 1450 1463
e 1450 1464
e 1450 1465
e 1450 1466
e 1450 1467
e 1450 1468
e 1450 1469
e 1450 1470
e 1450 1471
e 1450 1472
e 1450 1473
e 1450 1474
e 1450 1475
e 1450 1476
e 1450 1477
e 1450 1478
e 1450 1479
e 1450 1480
e 1450 1481
e 1450 1482
e 1450 1483
e 1450 1484
e 1450 1485
e 1486 1487
e 1486 1488
e 1486 1489
e 1486 1490
e 1486 1491
e 1486 1492
e 1486 1493
e 1486 1494
e 1486 1495
e 1486 1496
e 1486 1497
e 1486 1498
e 1486 1499
e 1486 1500
e 1486 1501
e 1486 1502
e 1486 1503
e 1486 1504
e 1486 1505
e 1486 1506
e 1486 1507
e 1486 1508
e 1486 1509
e 1486 1510
e 1486 1511
e 1486 1512
e 1486 1513
e 1486 1514
e 1486 1515
e 1486 1516
e 1486 1517
e 1486 1518
e 1486 1519
e 1486 1520
e 1486 1521
e 1486 1522
e 1486 1523
e 1486 1524
e 1486 1525
e 1486 1526
e 1486 1527
e 1486 1528
e 1486 1529
e 1486 1530
e 1486 1531
e 1486 1532
e 1486 1533
e 1486 1534
e 1486 1535
e 1486 1536
e 1486 1537
e 1486 1538
e 1486 1539
e 1486 1540
e 1541 1542
e 1541 1543
e 1541 1544
e 1541 1545
e 1541 1546
e 1541 1547
e 1541 1548
e 1541 1549
e 1541 1550
e 1541 1551
e 1541 1552
e 1541 1553
e 1541 1554
e 1541 1555
e 1541 1556
e 1541 1557
e 1541 1558
e 1541 1559
e 1541 1560
e 1541 1561
e 1541 1562
e 1541 1563
e 1541 1564
e 1541 1565
e 1541 1566
e 1541 1567
e 1541 1568
e 1541 1569
e 1541 1570
e 1541 1571
e 1541 1572
e 1541 1573
e 1541 1574
e 1541 1575
e 1541 1576
e 1541 1577
e 1541 1578
e 1541 1579
e 1541 1580
e 1541 1581
e 1541 1582
e 1541 1583
e 1541 1584
e 1541 1585
e 1541 1586
e 1541 1587
e 1541 1588
e 1541 1589
e 1541 1590
e 1541 1591
e 1541 1592
e 1541 1593
e 1594 1595
e 1594 1596
e 1594 1597
e 1594 1598
e 1594 1599
e 1594 1600
e 1594 1601
e 1594 1602
e 1594 1603
e 1594 1604
e 1594 1605
e 1594 1606
e 1594 1607
e 1594 1608
e 1594 1609
e 1594 1610
e 1594 1611
e 1594 1612
e 1594 1613
e 1594 1614
e 1594 1615
e 1594 1616
e 1594 1617
e 1594 1618
e 1594 1619
e 1594 1620
e 1594 1621
e 1594 1622
e 1594 1623
e 1594 1624
e 1594 1625
e 1594 1626
e 1594 1627
e 1594 1628
e 1594 1629
e 1594 1630
e 1594 1631
e 1594 1632
e 1594 1633
e 1594 1634
e 1594 1635
e 1594 1636
e 1594 1637
e 1594 1638
e 1594 1639
e 1594 1640
e 1594 1641
e 1594 1642
e 1594 1643
e 1594 1644
e 1645 1646
e 1645 1647
e 1645 1648
e 1645 1649
e 1645 1650
e 1645 1651
e 1645 1652
e 1645 1653
e 1645 1654
e 1645 1655
e 1645 1656
e 1645 1657
e 1645 1658
e 1645 1659
e 1645 1660
e 1645 1661
e 1645 1662
e 1645 1663
e 1645 1664
e 1645 1665
e 1645 1666
e 1645 1667
e 1645 1668
e 1645 1669
e 1645 1670
e 1645 1671
e 1645 1672
e 1645 1673
e 1645 1674
e 1645 1675
e 1645 1676
e 1645 1677
e 1645 1678
e 1645 1679
e 1645 1680
e 1645 1681
e 1645 1682
e 1645 1683
e 1645 1684
e 1645 1685
e 1645 1686
e 1645 1687
e 1645 1688
e 1645 1689
e 1645 1690
e 1691 1692
e 1691 1693
e 1691 1694
e 1691 1695
e 1691 1696
e 1691 1697
e 1691 1698
e 1691 1699
e 1691 1700
e 1691 1701
e 1691 1702
e 1691 1703
e 1691 1704
e 1691 1705
e 1691 1706
e 1691 1707
e 1691 1708
e 1691 1709
e 1691 1710
e 1691 1711
e 1691 1712
e 1691 1713
e 1691 1714
e 1691 1715
e 1691 1716
e 1717 1718
e 1717 1719
e 1717 1720
e 1717 1721
e 1717 1722
e 1717 1723
e 1717 1724
e 1717 1725
e 1717 1726
e 1717 1727
e 1717 1728
e 1717 1729
e 1717 1730
e 1717 1731
e 1717 1732
e 1717 1733
e 1717 1734
e 1717 1735
e 1717 1736
e 1717 1737
e 1717 1738
e 1717 1739
e 1717 1740
e 1717 1741
e 1717 1742
e 1717 1743
e 1717 1744
e 1717 1745
e 1717 1746
e 1717 1747
e 1717 1748
e 1717 1749
e 1717 1750
e 1717 1751
e 1717 1752
e 1753 1754
e 1753 1755
e 1753 1756
e 1753 1757
e 1753 1758
e 1753 1759
e 1753 1760
e 1753 1761
e 1753 1762
e 1753 1763
e 1753 1764
e 1753 1765
e 1753 1766
e 1753 1767
e 1753 1768
e 1753 1769
e 1753 1770
e 1753 1771
e 1753 1772
e 1753 1773
e 1774 1775
e 1774 1776
e 1774 1777
e 1774 1778
e 1774 1779
e 1774 1780
e 1774 1781
e 1774 1782
e 1774 1783
e 1774 1784
e 1774 1785
e 1774 1786
e 1774 1787
e 1774 1788
e 1774 1789
e 1774 1790
e 1774 1791
e 1774 1792
e 1774 1793
e 1774 1794
e 1774 1795
e 1774 1796
e 1774 1797
e 1774 1798
e 1774 1799
e 1774 1800
e 1774 1801
e 1774 1802
e 1774 1803
e 1774 1804
e 1774 1805
e 1774 1806
e 1774 1807
e 1774 1808
e 1774 1809
e 1774 1810
e 1774 1811
e 1774 1812
e 1774 1813
e 1774 1814
e 1774 1815
e 1774 1816
e 1774 1817
e 1774 1818
e 1774 1819
e 1774 1820
e 1774 1821
e 1774 1822
e 1774 1823
e 1774 1824
e 1774 1825
e 1774 1826
e 1774 1827
e 1774 1828
e 1774 1829
e 1830 1831
e 1830 1832
e 1830 1833
e 1830 1834
e 1830 1835
e 1830 1836
e 1830 1837
e 1830 1838
e 1830 1839
e 1830 1840
e 1830 1841
e 1830 1842
e 1830 1843
e 1830 1844
e 1830 1845
e 1830 1846
e 1830 1847
e 1830 1848
e 1830 1849
e 1830 1850
e 1830 1851
e 1830 1852
e 1830 1853
e 1830 1854
e 1830 1855
e 1830 1856
e 1830 1857
e 1830 1858
e 1830 1859
e 1830 1860
e 1830 1861
e 1830 1862
e 1830 1863
e 1830 1864
e 1830 1865
e 1830 1866
e 1830 1867
e 1830 1868
e 1830 1869
e 1830 1870
e 1830 1871
e 1830 1872
e 1830 1873
e 1830 1874
e 1830 1875
e 1830 1876
e 1830 1877
e 1830 1878
e 1830 1879
e 1830 1880
e 1830 1881
e 1830 1882
e 1830 1883
e 1830 1884
e 1830 1885
e 1830 1886
e 1830 1887
e 1830 1888
e 1830 1889
e 1890 1891
e 1890 1892
e 1890 1893
e 1890 1894
e 1890 1895
e 1890 1896
e 1890 1897
e 1890 1898
e 1890 1899
e 1890 1900
e 1890 1901
e 1890 1902
e 1890 1903
e 1890 1904
e 1890 1905
e 1906 1907
e 1906 1908
e 1906 1909
e 1906 1910
e 1906 1911
e 1906 1912
e 1906 1913
e 1906 1914
e 1906 1915
e 1906 1916
e 1906 1917
e 1906 1918
e 1906 1919
e 1906 1920
e 1906 1921
e 1906 1922
e 1906 1923
e 1906 1924
e 1906 1925
e 1906 1926
e 1906 1927
e 1906 1928
e 1906 1929
e 1906 1930
e 1906 1931
e 1906 1932
e 1906 1933
e 1906 1934
e 1906 1935
e 1906 1936
e 1906 1937
e 1906 1938
e 1906 1939
e 1906 1940
e 1906 1941
e 1906 1942
e 1906 1943
e 1906 1944
e 1906 1945
e 1906 1946
e 1906 1947
e 1906 1948
e 1906 1949
e 1906 1950
e 1906 1951
e 1906 1952
e 1906 1953
e 1906 1954
e 1906 1955
e 1906 1956
e 1906 1957
e 1906 1958
e 1906 1959
e 1906 1960
e 1906 1961
e 1906 1962
e 1906 1963
e 1906 1964
e 1906 1965
e 1906 1966
e 1967 1968
e 1967 1969
e 1967 1970
e 1967 1971
e 1967 1972
e 1967 1973
e 1967 1974
e 1967 1975
e 1967 1976
e 1967 1977
e 1967 1978
e 1967 1979
e 1967 1980
e 1967 1981
e 1967 1982
e 1967 1983
e 1967 1984
e 1967 1985
e 1967 1986
e 1967 1987
e 1967 1988
e 1967 1989
e 1967 1990
e 1967 1991
e 1967 1992
e 1967 1993
e 1967 1994
e 1967 1995
e 1967 1996
e 1967 1997
e 1967 1998
e 1967 1999
e 1967 2000
e 1967 2001
e 1967 2002
e 1967 2003
e 1967 2004
e 1967 2005
e 1967 2006
e 1967 2007
e 1967 2008
e 2009 2010
e 2009 2011
e 2009 2012
e 2009 2013
e 2009 2014
e 2009 2015
e 2009 2016
e 2009 2017
e 2009 2018
e 2009 2019
e 2009 2020
e 2021 2022
e 2021 2023
e 2021 2024
e 2021 2025
e 2021 2026
e 2021 2027
e 2021 2028
e 2021 2029
e 2021 2030
e 2021 2031
e 2021 2032
e 2021 2033
e 2021 2034
e 2021 2035
e 2021 2036
e 2021 2037
e 2021 2038
e 2021 2039
e 2021 2040
e 2021 2041
e 2021 2042
e 2021 2043
e 2021 2044
e 2021 2045
e 2021 2046
e 2021 2047
e 2021 2048
e 2021 2049
e 2021 2050
e 2021 2051
e 2021 2052
e 2021 2053
e 2021 2054
e 2021 2055
e 2021 2056
e 2021 2057
e 2058 2059
e 2058 2060
e 2058 2061
e 2058 2062
e 2058 2063
e 2058 2064
e 2058 2065
e 2058 2066
e 2058 2067
e 2058 2068
e 2058 2069
e 2058 2070
e 2058 2071
e 2058 2072
e 2058 2073
e 2058 2074
e 2058 2075
e 2058 2076
e 2058 2077
e 2058 2078
e 2058 2079
e 2058 2080
e 2081 2082
e 2081 2083
e 2081 2084
e 2081 2085
e 2081 2086
e 2081 2087
e 2081 2088
e 2081 2089
e 2081 2090
e 2081 2091
e 2081 2092
e 2081 2093
e 2081 2094
e 2081 2095
e 2081 2096
e 2081 2097
e 2081 2098
e 2081 2099
e 2081 2100
e 2081 2101
e 2081 2102
e 2081 2103
e 2081 2104
e 2081 2105
e 2081 2106
e 2081 2107
e 2081 2108
e 2081 2109
e 2081 2110
e 2081 2111
e 2081 2112
e 2081 2113
e 2081 2114
e 2081 2115
e 2081 2116
e 2081 2117
e 2081 2118
e 2081 2119
e 2081 2120
e 2081 2121
e 2081 2122
e 2081 2123
e 2081 2124
e 2081 2125
e 2081 2126
e 2081 2127
e 2081 2128
e 2081 2129
e 2081 2130
e 2081 2131
e 2081 2132
e 2133 2134
e 2133 2135
e 2133 2136
e 2133 2137
e 2133 2138
e 2133 2139
e 2133 2140
e 2133 2141
e 2133 2142
e 2133 2143
e 2133 2144
e 2133 2145
e 2133 2146
e 2133 2147
e 2133 2148
e 2133 2149
e 2133 2150
e 2133 2151
e 2133 2152
e 2133 2153
e 2133 2154
e 2133 2155
e 2133 2156
e 2133 2157
e 2133 2158
e 2133 2159
e 2133 2160
e 2133 2161
e 2162 2163
e 2162 2164
e 2162 2165
e 2162 2166
e 2162 2167
e 2162 2168
e 2162 2169
e 2162 2170
e 2162 2171
e 2162 2172
e 2162 2173
e 2162 2174
e 2175 2176
e 2175 2177
e 2175 2178
e 2175 2179
e 2175 2180
e 2175 2181
e 2175 2182
e 2175 2183
e 2175 2184
e 2175 2185
e 2175 2186
e 2175 2187
e 2175 2188
e 2175 2189
e 2175 2190
e 2175 2191
e 2175 2192
e 2175 2193
e 2175 2194
e 2175 2195
e 2175 2196
e 2175 2197
e 2175 2198
e 2175 2199
e 2175 2200
e 2175 2201
e 2175 2202
e 2175 2203
e 2175 2204
e 2175 2205
e 2175 2206
e 2175 2207
e 2175 2208
e 2175 2209
e 2175 2210
e 2175 2211
e 2175 2212
e 2175 2213
e 2175 2214
e 2175 2215
e 2175 2216
e 2175 2217
e 2175 2218
e 2175 2219
e 2175 2220
e 2175 2221
e 2175 2222
e 2175 2223
e 2175 2224
e 2175 2225
e 2175 2226
e 2175 2227
e 2175 2228
e 2175 2229
e 2175 2230
e 2231 2232
e 2231 2233
e 2231 2234
e 2231 2235
e 2231 2236
e 2231 2237
e 2231 2238
e 2231 2239
e 2231 2240
e 2231 2241
e 2231 2242
e 2231 2243
e 2231 2244
e 2231 2245
e 2231 2246
e 2231 2247
e 2231 2248
e 2231 2249
e 2231 2250
e 2231 2251
e 2231 2252
e 2231 2253
e 2231 2254
e 2231 2255
e 2231 2256
e 2231 2257
e 2231 2258
e 2231 2259
e 2231 2260
e 2231 2261
e 2231 2262
e 2231 2263
e 2231 2264
e 2231 2265
e 2231 2266
e 2231 2267
e 2231 2268
e 2231 2269
e 2231 2270
e 2231 2271
e 2231 2272
e 2231 2273
e 2231 2274
e 2231 2275
e 2231 2276
e 2231 2277
e 2231 2278
e 2231 2279
e 2280 2281
e 2280 2282
e 2280 2283
e 2280 2284
e 2280 2285
e 2280 2286
e 2280 2287
e 2280 2288
e 2280 2289
e 2280 2290
e 2280 2291
e 2280 2292
e 2280 2293
e 2280 2294
e 2280 2295
e 2280 2296
e 2280 2297
e 2298 2299
e 2298 2300
e 2298 2301
e 2298 2302
e 2298 2303
e 2298 2304
e 2298 2305
e 2298 2306
e 2298 2307
e 2298 2308
e 2298 2309
e 2298 2310
e 2298 2311
e 2298 2312
e 2298 2313
e 2298 2314
e 2298 2315
e 2298 2316
e 2298 2317
e 2298 2318
e 2298 2319
e 2298 2320
e 2298 2321
e 2298 2322
e 2298 2323
e 2298 2324
e 2298 2325
e 2298 2326
e 2298 2327
e 2298 2328
e 2298 2329
e 2298 2330
e 2298 2331
e 2298 2332
e 2298 2333
e 2298 2334
e 2298 2335
e 2298 2336
e 2298 2337
e 2298 2338
e 2298 2339
e 2298 2340
e 2298 2341
e 2298 2342
e 2298 2343
e 2298 2344
e 2298 2345
e 2298 2346
e 2298 2347
e 2298 2348
e 2298 2349
e 2298 2350
e 2298 2351
e 2298 2352
e 2298 2353
e 2298 2354
e 2298 2355
e 2298 2356
e 2357 2358
e 2357 2359
e 2357 2360
e 2357 2361
e 2357 2362
e 2357 2363
e 2357 2364
e 2357 2365
e 2357 2366
e 2357 2367
e 2357 2368
e 2357 2369
e 2357 2370
e 2357 2371
e 2357 2372
e 2357 2373
e 2357 2374
e 2357 2375
e 2357 2376
e 2357 2377
e 2378 2379
e 2378 2380
e 2378 2381
e 2378 2382
e 2378 2383
e 2378 2384
e 2378 2385
e 2378 2386
e 2378 2387
e 2378 2388
e 2378 2389
e 2378 2390
e 2378 2391
e 2378 2392
e 2378 2393
e 2378 2394
e 2378 2395
e 2378 2396
e 2378 2397
e 2378 2398
e 2378 2399
e 2378 2400
e 2378 2401
e 2378 2402
e 2378 2403
e 2378 2404
e 2378 2405
e 2378 2406
e 2378 2407
e 2378 2408
e 2378 2409
e 2378 2410
e 2411 2412
e 2411 2413
e 2411 2414
e 2411 2415
e 2411 2416
e 2411 2417
e 2411 2418
e 2411 2419
e 2411 2420
e 2411 2421
e 2411 2422
e 2411 2423
e 2411 2424
e 2411 2425
e 2411 2426
e 2427 2428
e 2427 2429
e 2427 2430
e 2427 2431
e 2427 2432
e 2427 2433
e 2427 2434
e 2427 2435
e 2427 2436
e 2427 2437
e 2427 2438
e 2427 2439
e 2427 2440
e 2427 2441
e 2427 2442
e 2427 2443
e 2427 2444
e 2427 2445
e 2427 2446
e 2427 2447
e 2427 2448
e 2427 2449
e 2427 2450
e 2427 2451
e 2427 2452
e 2427 2453
e 2427 2454
e 2427 2455
e 2427 2456
e 2427 2457
e 2427 2458
e 2427 2459
e 2427 2460
e 2427 2461
e 2427 2462
e 2427 2463
e 2427 2464
e 2427 2465
e 2427 2466
e 2427 2467
e 2427 2468
e 2427 2469
e 2427 2470
e 2471 2472
e 2471 2473
e 2471 2474
e 2471 2475
e 2471 2476
e 2471 2477
e 2471 2478
e 2471 2479
e 2471 2480
e 2471 2481
e 2471 2482
e 2471 2483
e 2471 2484
e 2471 2485
e 2471 2486
e 2471 2487
e 2471 2488
e 2471 2489
e 2471 2490
e 2471 2491
e 2471 2492
e 2471 2493
e 2471 2494
e 2471 2495
e 2471 2496
e 2471 2497
e 2471 2498
e 2471 2499
e 2471 2500
e 2471 2501
e 2471 2502
e 2503 2504
e 2503 2505
e 2503 2506
e 2503 2507
e 2503 2508
e 2503 2509
e 2503 2510
e 2503 2511
e 2503 2512
e 2503 2513
e 2503 2514
e 2503 2515
e 2503 2516
e 2503 2517
e 2503 2518
e 2503 2519
e 2503 2520
e 2521 2522
e 2521 2523
e 2521 2524
e 2521 2525
e 2521 2526
e 2521 2527
e 2521 2528
e 2521 2529
e 2521 2530
e 2521 2531
e 2521 2532
e 2521 2533
e 2521 2534
e 2521 2535
e 2521 2536
e 2521 2537
e 2521 2538
e 2521 2539
e 2521 2540
e 2521 2541
e 2521 2542
e 2521 2543
e 2521 2544
e 2521 2545
e 2521 2546
e 2521 2547
e 2521 2548
e 2521 2549
e 2521 2550
e 2521 2551
e 2521 2552
e 2521 2553
e 2521 2554
e 2521 2555
e 2521 2556
e 2521 2557
e 2521 2558
e 2521 2559
e 2521 2560
e 2521 2561
e 2521 2562
e 2521 2563
e 2521 2564
e 2521 2565
e 2521 2566
e 2521 2567
e 2521 2568
e 2521 2569
e 2521 2570
e 2521 2571
e 2521 2572
e 2521 2573
e 2521 2574
e 2521 2575
e 2521 2576
e 2521 2577
e 2578 2579
e 2578 2580
e 2578 2581
e 2578 2582
e 2578 2583
e 2578 2584
e 2578 2585
e 2578 2586
e 2578 2587
e 2578 2588
e 2578 2589
e 2578 2590
e 2578 2591
e 2578 2592
e 2578 2593
e 2578 2594
e 2578 2595
e 2578 2596
e 2578 2597
e 2578 2598
e 2578 2599
e 2578 2600
e 2578 2601
e 2578 2602
e 2578 2603
e 2578 2604
e 2578 2605
e 2578 2606
e 2578 2607
e 2578 2608
e 2578 2609
e 2578 2610
e 2578 2611
e 2578 2612
e 2578 2613
e 2578 2614
e 2578 2615
e 2578 2616
e 2578 2617
e 2578 2618
e 2578 2619
e 2578 2620
e 2578 2621
e 2578 2622
e 2578 2623
e 2578 2624
e 2578 2625
e 2578 2626
e 2578 2627
e 2578 2628
e 2578 2629
e 2578 2630
e 2578 2631
e 2578 2632
e 2578 2633
e 2578 2634
e 2578 2635
e 2578 2636
e 2637 2638
e 2637 2639
e 2637 2640
e 2637 2641
e 2637 2642
e 2637 2643
e 2637 2644
e 2637 2645
e 2637 2646
e 2637 2647
e 2637 2648
e 2637 2649
e 2637 2650
e 2637 2651
e 2637 2652
e 2637 2653
e 2637 2654
e 2637 2655
e 2637 2656
e 2637 2657
e 2637 2658
e 2637 2659
e 2637 2660
e 2637 2661
e 2637 2662
e 2637 2663
e 2637 2664
e 2637 2665
e 2637 2666
e 2637 2667
e 2637 2668
e 2637 2669
e 2637 2670
e 2637 2671
e 2637 2672
e 2637 2673
e 2637 2674
e 2637 2675
e 2637 2676
e 2637 2677
e 2637 2678
e 2637 2679
e 2637 2680
e 2637 2681
e 2637 2682
e 2637 2683
e 2637 2684
e 2637 2685
e 2637 2686
e 2637 2687
e 2637 2688
e 2637 2689
e 2637 2690
e 2637 2691
e 2637 2692
e 2637 2693
e 2637 2694
e 2637 2695
e 2637 2696
e 2697 2698
e 2697 2699
e 2697 2700
e 2697 2701
e 2697 2702
e 2697 2703
e 2697 2704
e 2697 2705
e 2697 2706
e 2697 2707
e 2697 2708
e 2697 2709
e 2697 2710
e 2697 2711
e 2697 2712
e 2697 2713
e 2697 2714
e 2697 2715
e 2716 2717
e 2716 2718
e 2716 2719
e 2716 2720
e 2716 2721
e 2716 2722
e 2716 2723
e 2716 2724
e 2716 2725
e 2716 2726
e 2716 2727
e 2716 2728
e 2729 2730
e 2729 2731
e 2729 2732
e 2729 2733
e 2729 2734
e 2729 2735
e 2729 2736
e 2729 2737
e 2729 2738
e 2729 2739
e 2729 2740
e 2729 2741
e 2729 2742
e 2729 2743
e 2729 2744
e 2729 2745
e 2729 2746
e 2729 2747
e 2729 2748
e 2729 2749
e 2729 2750
e 2729 2751
e 2729 2752
e 2729 2753
e 2729 2754
e 2729 2755
e 2729 2756
e 2729 2757
e 2729 2758
e 2729 2759
e 2729 2760
e 2729 2761
e 2729 2762
e 2729 2763
e 2729 2764
e 2729 2765
e 2729 2766
e 2729 2767
e 2729 2768
e 2729 2769
e 2729 2770
e 2771 2772
e 2771 2773
e 2771 2774
e 2771 2775
e 2771 2776
e 2771 2777
e 2771 2778
e 2771 2779
e 2771 2780
e 2771 2781
e 2771 2782
e 2771 2783
e 2771 2784
e 2771 2785
e 2771 2786
e 2771 2787
e 2771 2788
e 2771 2789
e 2771 2790
e 2771 2791
e 2771 2792
e 2771 2793
e 2771 2794
e 2771 2795
e 2771 2796
e 2771 2797
e 2771 2798
e 2771 2799
e 2771 2800
e 2771 2801
e 2771 2802
e 2771 2803
e 2771 2804
e 2805 2806
e 2805 2807
e 2805 2808
e 2805 2809
e 2805 2810
e 2805 2811
e 2805 2812
e 2805 2813
e 2805 2814
e 2805 2815
e 2805 2816
e 2805 2817
e 2805 2818
e 2805 2819
e 2805 2820
e 2805 2821
e 2805 2822
e 2805 2823
e 2805 2824
e 2805 2825
e 2805 2826
e 2805 2827
e 2805 2828
e 2805 2829
e 2805 2830
e 2805 2831
e 2805 2832
e 2833 2834
e 2833 2835
e 2833 2836
e 2833 2837
e 2833 2838
e 2833 2839
e 2833 2840
e 2833 2841
e 2833 2842
e 2833 2843
e 2833 2844
e 2833 2845
e 2833 2846
e 2833 2847
e 2833 2848
e 2833 2849
e 2833 2850
e 2833 2851
e 2833 2852
e 2833 2853
e 2833 2854
e 2833 2855
e 2833 2856
e 2833 2857
e 2833 2858
e 2833 2859
e 2833 2860
e 2833 2861
e 2833 2862
e 2833 2863
e 2833 2864
e 2833 2865
e 2833 2866
e 2833 2867
e 2833 2868
e 2833 2869
e 2833 2870
e 2833 2871
e 2833 2872
e 2833 2873
e 2833 2874
e 2833 2875
e 2833 2876
e 2833 2877
e 2833 2878
e 2833 2879
e 2833 2880
e 2833 2881
e 2833 2882
e 2833 2883
e 2833 2884
e 2833 2885
e 2833 2886
e 2833 2887
e 2888 2889
e 2888 2890
e 2888 2891
e 2888 2892
e 2888 2893
e 2888 2894
e 2888 2895
e 2888 2896
e 2888 2897
e 2888 2898
e 2888 2899
e 2888 2900
e 2888 2901
e 2888 2902
e 2888 2903
e 2888 2904
e 2888 2905
e 2888 2906
e 2888 2907
e 2888 2908
e 2888 2909
e 2888 2910
e 2888 2911
e 2888 2912
e 2888 2913
e 2888 2914
e 2888 2915
e 2888 2916
e 2917 2918
e 2917 2919
e 2917 2920
e 2917 2921
e 2917 2922
e 2917 2923
e 2917 2924
e 2917 2925
e 2917 2926
e 2917 2927
e 2917 2928
e 2917 2929
e 2917 2930
e 2917 2931
e 2917 2932
e 2917 2933
e 2917 2934
e 2917 2935
e 2917 2936
e 2917 2937
e 2917 2938
e 2917 2939
e 2917 2940
e 2917 2941
e 2917 2942
e 2917 2943
e 2917 2944
e 2917 2945
e 2917 2946
e 2917 2947
e 2917 2948
e 2949 2950
e 2949 2951
e 2949 2952
e 2949 2953
e 2949 2954
e 2949 2955
e 2949 2956
e 2949 2957
e 2949 2958
e 2949 2959
e 2949 2960
e 2949 2961
e 2949 2962
e 2949 2963
e 2949 2964
e 2949 2965
e 2949 2966
e 2949 2967
e 2949 2968
e 2949 2969
e 2949 2970
e 2949 2971
e 2949 2972
e 2949 2973
e 2949 2974
e 2949 2975
e 2949 2976
e 2949 2977
e 2949 2978
e 2949 2979
e 2949 2980
e 2949 2981
e 2949 2982
e 2949 2983
e 2949 2984
e 2949 2985
e 2949 2986
e 2949 2987
e 2949 2988
e 2949 2989
e 2949 2990
e 2949 2991
e 2949 2992
e 2949 2993
e 2949 2994
e 2949 2995
e 2949 2996
e 2949 2997
e 2949 2998
e 2949 2999
e 2949 3000
e 2949 3001
e 2949 3002
e 3003 3004
e 3003 3005
e 3003 3006
e 3003 3007
e 3003 3008
e 3003 3009
e 3003 3010
e 3003 3011
e 3003 3012
e 3003 3013
e 3003 3014
e 3003 3015
e 3003 3016
e 3003 3017
e 3003 3018
e 3019 3020
e 3019 3021
e 3019 3022
e 3019 3023
e 3019 3024
e 3019 3025
e 3019 3026
e 3019 3027
e 3019 3028
e 3019 3029
e 3019 3030
e 3019 3031
e 3019 3032
e 3019 3033
e 3019 3034
e 3019 3035
e 3019 3036
e 3019 3037
e 3038 3039
e 3038 3040
e 3038 3041
e 3038 3042
e 3038 3043
e 3038 3044
e 3038 3045
e 3038 3046
e 3038 3047
e 3038 3048
e 3038 3049
e 3038 3050
e 3038 3051
e 3038 3052
e 3038 3053
e 3038 3054
e 3038 3055
e 3038 3056
e 3038 3057
e 3038 3058
e 3038 3059
e 3060 3061
e 3060 3062
e 3060 3063
e 3060 3064
e 3060 3065
e 3060 3066
e 3060 3067
e 3060 3068
e 3060 3069
e 3060 3070
e 3060 3071
e 3060 3072
e 3060 3073
e 3060 3074
e 3060 3075
e 3060 3076
e 3060 3077
e 3060 3078
e 3060 3079
e 3060 3080
e 3060 3081
e 3060 3082
e 3083 3084
e 3083 3085
e 3083 3086
e 3083 3087
e 3083 3088
e 3083 3089
e 3083 3090
e 3083 3091
e 3083 3092
e 3083 3093
e 3083 3094
e 3083 3095
e 3083 3096
e 3083 3097
e 3083 3098
e 3083 3099
e 3083 3100
e 3083 3101
e 3083 3102
e 3083 3103
e 3083 3104
e 3083 3105
e 3083 3106
e 3083 3107
e 3083 3108
e 3083 3109
e 3083 3110
e 3083 3111
e 3083 3112
e 3083 3113
e 3083 3114
e 3083 3115
e 3083 3116
e 3083 3117
e 3083 3118
e 3083 3119
e 3083 3120
e 3083 3121
e 3083 3122
e 3083 3123
e 3083 3124
e 3125 3126
e 3125 3127
e 3125 3128
e 3125 3129
e 3125 3130
e 3125 3131
e 3125 3132
e 3125 3133
e 3125 3134
e 3125 3135
e 3125 3136
e 3125 3137
e 3125 3138
e 3125 3139
e 3125 3140
e 3125 3141
e 3125 3142
e 3125 3143
e 3125 3144
e 3125 3145
e 3125 3146
e 3125 3147
e 3125 3148
e 3125 3149
e 3125 3150
e 3125 3151
e 3125 3152
e 3125 3153
e 3125 3154
e 3125 3155
e 3125 3156
e 3125 3157
e 3125 3158
e 3125 3159
e 3125 3160
e 3125 3161
e 3125 3162
e 3125 3163
e 3125 3164
e 3125 3165
e 3125 3166
e 3125 3167
e 3125 3168
e 3169 3170
e 3169 3171
e 3169 3172
e 3169 3173
e 3169 3174
e 3169 3175
e 3169 3176
e 3169 3177
e 3169 3178
e 3169 3179
e 3169 3180
e 3169 3181
e 3169 3182
e 3169 3183
e 3169 3184
e 3169 3185
e 3169 3186
e 3169 3187
e 3169 3188
e 3169 3189
e 3169 3190
e 3169 3191
e 3169 3192
e 3169 3193
e 3169 3194
e 3169 3195
e 3169 3196
e 3169 3197
e 3169 3198
e 3169 3199
e 3169 3200
e 3169 3201
e 3169 3202
e 3169 3203
e 3169 3204
e 3169 3205
e 3169 3206
e 3169 3207
e 3208 3209
e 3208 3210
e 3208 3211
e 3208 3212
e 3208 3213
e 3208 3214
e 3208 3215
e 3208 3216
e 3208 3217
e 3208 3218
e 3208 3219
e 3208 3220
e 3208 3221
e 3208 3222
e 3208 3223
e 3208 3224
e 3208 3225
e 3208 3226
e 3208 3227
e 3208 3228
e 3208 3229
e 3208 3230
e 3208 3231
e 3208 3232
e 3208 3233
e 3208 3234
e 3208 3235
e 3208 3236
e 3208 3237
e 3208 3238
e 3208 3239
e 3208 3240
e 3208 3241
e 3208 3242
e 3208 3243
e 3208 3244
e 3208 3245
e 3208 3246
e 3208 3247
e 3208 3248
e 3208 3249
e 3208 3250
e 3208 3251
e 3208 3252
e 3208 3253
e 3208 3254
e 3208 3255
e 3208 3256
e 3208 3257
e 3208 3258
e 3208 3259
e 3208 3260
e 3208 3261
e 3208 3262
e 3208 3263
e 3208 3264
e 3208 3265
e 3208 3266
e 3208 3267
e 3208 3268
e 3269 3270
e 3269 3271
e 3269 3272
e 3269 3273
e 3269 3274
e 3269 3275
e 3269 3276
e 3269 3277
e 3269 3278
e 3269 3279
e 3269 3280
e 3269 3281
e 3269 3282
e 3269 3283
e 3269 3284
e 3269 3285
e 3269 3286
e 3269 3287
e 3269 3288
e 3269 3289
e 3269 3290
e 3269 3291
e 3269 3292
e 3269 3293
e 3269 3294
e 3269 3295
e 3269 3296
e 3269 3297
e 3269 3298
e 3269 3299
e 3269 3300
e 3269 3301
e 3269 3302
e 3269 3303
e 3269 3304
e 3269 3305
e 3269 3306
e 3307 3308
e 3307 3309
e 3307 3310
e 3307 3311
e 3307 3312
e 3307 3313
e 3307 3314
e 3307 3315
e 3307 3316
e 3307 3317
e 3307 3318
e 3307 3319
e 3307 3320
e 3307 3321
e 3307 3322
e 3307 3323
e 3307 3324
e 3325 3326
e 3325 3327
e 3325 3328
e 3325 3329
e 3325 3330
e 3325 3331
e 3325 3332
e 3325 3333
e 3325 3334
e 3325 3335
e 3325 3336
e 3325 3337
e 3338 3339
e 3338 3340
e 3338 3341
e 3338 3342
e 3338 3343
e 3338 3344
e 3338 3345
e 3338 3346
e 3338 3347
e 3338 3348
e 3338 3349
e 3338 3350
e 3338 3351
e 3352 3353
e 3352 3354
e 3352 3355
e 3352 3356
e 3352 3357
e 3352 3358
e 3352 3359
e 3352 3360
e 3352 3361
e 3352 3362
e 3352 3363
e 3364 3365
e 3364 3366
e 3364 3367
e 3364 3368
e 3364 3369
e 3364 3370
e 3364 3371
e 3364 3372
e 3364 3373
e 3364 3374
e 3364 3375
e 3364 3376
e 3364 3377
e 3364 3378
e 3364 3379
e 3364 3380
e 3364 3381
e 3364 3382
e 3364 3383
e 3364 3384
e 3364 3385
e 3364 3386
e 3364 3387
e 3364 3388
e 3364 3389
e 3364 3390
e 3364 3391
e 3364 3392
e 3364 3393
e 3364 3394
e 3364 3395
e 3364 3396
e 3364 3397
e 3364 3398
e 3364 3399
e 3364 3400
e 3364 3401
e 3364 3402
e 3364 3403
e 3364 3404
e 3364 3405
e 3364 3406
e 3364 3407
e 3364 3408
e 3364 3409
e 3364 3410
e 3364 3411
e 3364 3412
e 3364 3413
e 3364 3414
e 3364 3415
e 3364 3416
e 3364 3417
e 3364 3418
e 3364 3419
e 3364 3420
e 3421 3422
e 3421 3423
e 3421 3424
e 3421 3425
e 3421 3426
e 3421 3427
e 3421 3428
e 3421 3429
e 3421 3430
e 3421 3431
e 3421 3432
e 3421 3433
e 3421 3434
e 3421 3435
e 3421 3436
e 3421 3437
e 3421 3438
e 3421 3439
e 3421 3440
e 3421 3441
e 3421 3442
e 3421 3443
e 3421 3444
e 3421 3445
e 3421 3446
e 3421 3447
e 3421 3448
e 3421 3449
e 3421 3450
e 3421 3451
e 3421 3452
e 3453 3454
e 3453 3455
e 3453 3456
e 3453 3457
e 3453 3458
e 3453 3459
e 3453 3460
e 3453 3461
e 3453 3462
e 3453 3463
e 3453 3464
e 3453 3465
e 3453 3466
e 3453 3467
e 3453 3468
e 3453 3469
e 3453 3470
e 3453 3471
e 3453 3472
e 3453 3473
e 3453 3474
e 3453 3475
e 3453 3476
e 3453 3477
e 3453 3478
e 3453 3479
e 3453 3480
e 3453 3481
e 3453 3482
e 3453 3483
e 3453 3484
e 3453 3485
e 3486 3487
e 3486 3488
e 3486 3489
e 3486 3490
e 3486 3491
e 3486 3492
e 3486 3493
e 3486 3494
e 3486 3495
e 3486 3496
e 3486 3497
e 3486 3498
e 3486 3499
e 3500 3501
e 3500 3502
e 3500 3503
e 3500 3504
e 3500 3505
e 3500 3506
e 3500 3507
e 3500 3508
e 3500 3509
e 3500 3510
e 3500 3511
e 3500 3512
e 3500 3513
e 3500 3514
e 3500 3515
e 3500 3516
e 3500 3517
e 3500 3518
